NAME : mEgtspf.pid11541.gtsp.224592051.tour
COMMENT : Length = 224592051
COMMENT : Found by LKH [Keld Helsgaun] Sat Mar  8 22:26:32 2025
TYPE : TOUR
DIMENSION : 135
TOUR_SECTION
1
128
129
130
131
95
92
93
94
124
125
126
127
4
100
101
102
103
56
57
58
59
20
21
22
23
99
96
97
98
89
90
91
88
7
37
38
39
36
45
46
47
44
10
51
48
49
50
106
107
104
105
75
72
73
74
13
120
121
122
123
35
32
33
34
3
53
54
55
52
6
77
78
79
76
5
71
68
69
70
134
135
132
133
27
24
25
26
111
108
109
110
31
28
29
30
9
60
61
62
63
119
116
117
118
8
15
17
18
19
16
11
115
112
113
114
2
41
42
43
40
67
64
65
66
12
14
85
86
87
84
82
83
80
81
-1
EOF
